VALUE 275
14 15
15 16
16 17
17 41
31 55
41 42
42 43
43 67
55 80
67 93
78 79
79 80
80 81
81 82
82 83
83 84
84 85
85 86
86 87
87 88
88 89
89 90
90 91
91 92
92 93
93 116
101 102
102 103
103 104
78 104
84 107
119 142
137 138
138 139
116 139
139 140
140 141
141 142
142 143

